&GLOBAL
  PROJECT MONITOR
  PRINT_LEVEL LOW
  RUN_TYPE MD
&END GLOBAL

&FORCE_EVAL
  METHOD QMMM
  STRESS_TENSOR ANALYTICAL
  &DFT
    CHARGE -2
    &QS
      METHOD AM1
      &SE
         &COULOMB
           CUTOFF [angstrom] 10.0
         &END
         &EXCHANGE
           CUTOFF [angstrom] 10.0
         &END
      &END
    &END QS
    &SCF
      MAX_SCF 30
      EPS_SCF 1.0E-6
      SCF_GUESS ATOMIC
      &OT
        MINIMIZER DIIS
        PRECONDITIONER FULL_SINGLE_INVERSE
      &END
      &OUTER_SCF
        EPS_SCF 1.0E-6
        MAX_SCF 10
      &END
      &PRINT
        &RESTART OFF
        &END
        &RESTART_HISTORY OFF
        &END
      &END
    &END SCF
  &END DFT
  &MM
    &FORCEFIELD
      PARMTYPE AMBER
      PARM_FILE_NAME complex_LJ_mod.prmtop
      &SPLINE
        EMAX_SPLINE 1.0E8
        RCUT_NB [angstrom] 10
      &END SPLINE
    &END FORCEFIELD
    &POISSON
      &EWALD
        EWALD_TYPE SPME
        ALPHA .40
        GMAX 80
      &END EWALD
    &END POISSON
  &END MM
  &SUBSYS
    &CELL
      ABC [angstrom] 79.0893744057 79.0893744057 79.0893744057
      ALPHA_BETA_GAMMA 90 90 90
    &END CELL
    &TOPOLOGY
      CONN_FILE_FORMAT AMBER
      CONN_FILE_NAME complex_LJ_mod.prmtop
    &END TOPOLOGY
    &KIND NA+
     ELEMENT Na
    &END KIND
    &COLVAR
       &DISTANCE_FUNCTION
          COEFFICIENT -1
          ATOMS  5663 5675 5670 5671
       &END DISTANCE_FUNCTION
       &END COLVAR
  &END SUBSYS
  &QMMM
    ECOUPL COULOMB
    &CELL
      ABC 40 40 40
      ALPHA_BETA_GAMMA 90 90 90
    &END CELL
    &QM_KIND O
      MM_INDEX 5668 5669 5670 5682 5685 5686
    &END QM_KIND
    &QM_KIND C
      MM_INDEX 5663 5666 5667 5671 5673 5675 5676 5678 5680 5684
    &END QM_KIND
    &QM_KIND H
      MM_INDEX  5664 5665 5672 5674 5677 5679 5681 5683
    &END QM_KIND

  &END QMMM
&END FORCE_EVAL

&MOTION
  &MD
  ENSEMBLE NVT
  TIMESTEP [fs] 0.5
  STEPS    10000  !5000 fs = 5ps
  TEMPERATURE 298
  &THERMOSTAT
    TYPE NOSE
    REGION GLOBAL
    &NOSE
      TIMECON [fs] 100.
    &END NOSE
  &END THERMOSTAT
  &END MD
  &FREE_ENERGY
    METHOD METADYN
    &METADYN
      DO_HILLS  .FALSE.
      NT_HILLS 100
      WW [kcalmol] 1.5
      &METAVAR
        WIDTH 0.5 !Also known as scale
        COLVAR 1
      &END METAVAR
    &PRINT
        &COLVAR
           COMMON_ITERATION_LEVELS 3
           &EACH
             MD 10
           &END
        &END
      &END
    &END METADYN
  &END FREE_ENERGY

   &PRINT
    &RESTART                                    ! This section controls the printing of restart files
      &EACH                                     ! A restart file will be printed every 10000 md steps
        MD 1000
      &END
    &END
    &RESTART_HISTORY                            ! This section controls dumping of unique restart files during the run keeping all of them.Most useful if recovery is needed at a later point.
      &EACH                                     ! A new restart file will be printed every 10000 md steps
        MD 1000
      &END
    &END
    &TRAJECTORY                                 ! Thes section Controls the output of the trajectory
      FORMAT XYZ                                ! Format of the output trajectory is XYZ
      &EACH                                     ! New trajectory frame will be printed each 100 md steps
        MD 1000
      &END
    &END
  &END PRINT
&END MOTION

&EXT_RESTART
  RESTART_FILE_NAME NPT-1.restart
  RESTART_COUNTERS .FALSE.
  RESTART_THERMOSTAT .FALSE.
&END
